CMD:
./solvers/bin/cadical --plain --no-reduce -t 1600 ./data/cnfs//arbitrated_top_n4_w16_d32_e0/arbitrated_top_n4_w16_d32_e0.8.cnf

c --- [ banner ] -------------------------------------------------------------
c 
c CaDiCaL SAT Solver
c Copyright (c) 2016-2024
c A. Biere, M. Fleury, N. Froleyks, K. Fazekas, F. Pollitt, T. Faller
c JKU Linz, University of Freiburg, TU Wien
c 
c Version 2.1.3 5296d3d2a9bf48c154ab2acb5e44625776d821bf
c g++ (Gentoo 12.3.1_p20230526 p2) 12.3.1 20230526 -Wall -Wextra -O3 -DNDEBUG
c Sat Aug 9 07:26:21 PDT 2025 Linux cedar2.int.cedar.computecanada.ca 5.14.0-362.24.2.el9_3.x86_64 x86_64
c 
c --- [ limit ] --------------------------------------------------------------
c 
c setting time limit to 1600 seconds real time (due to '-t 1600')
c 
c --- [ parsing input ] ------------------------------------------------------
c 
c reading DIMACS file from './data/cnfs//arbitrated_top_n4_w16_d32_e0/arbitrated_top_n4_w16_d32_e0.8.cnf'
c opening file to read './data/cnfs//arbitrated_top_n4_w16_d32_e0/arbitrated_top_n4_w16_d32_e0.8.cnf'
c found 'p cnf 114218 333919' header
c parsed 333919 clauses in 0.05 seconds process time
c 
c --- [ options ] ------------------------------------------------------------
c 
c   --compact=false                (different from default 'true')
c   --decompose=false              (different from default 'true')
c   --deduplicate=false            (different from default 'true')
c   --elim=false                   (different from default 'true')
c   --probe=false                  (different from default 'true')
c   --reduce=false                 (different from default 'true')
c   --subsume=false                (different from default 'true')
c   --ternary=false                (different from default 'true')
c   --transred=false               (different from default 'true')
c   --vivify=false                 (different from default 'true')
c 
c --- [ solving ] ------------------------------------------------------------
c 
c time measured in process time since initialization
c 
c  seconds  reductions  redundant  irredundant
c         MB    restarts       trail       variables
c          level   conflicts       glue         remaining
c 
c *  0.06 45  0 0   0    0    0  0% 0 232975 57070 50%
c {  0.06 46  0 0   0    0    0  0% 0 232975 57070 50%
c i  0.06 46 133 0   0   20   11 52% 2 232975 57007 50%
c i  0.06 46 81 0   0   28   17 52% 2 232975 57004 50%
c i  0.06 46 77 0   0   29   17 52% 2 232975 56926 50%
c i  0.07 46 89 0   0   51   24 53% 2 232975 56785 50%
c i  0.07 46 92 0   0   57   29 53% 2 232975 56653 50%
c i  0.07 46 90 0   0   88   51 54% 2 232975 56626 50%
c i  0.07 46 84 0   0  111   68 55% 2 232975 56432 49%
c i  0.07 46 81 0   0  126   81 55% 2 232975 56421 49%
c i  0.07 46 79 0   4  156  105 55% 2 232975 56333 49%
c i  0.07 46 79 0   4  159  106 55% 2 232975 56310 49%
c i  0.07 46 80 0   4  167  112 55% 2 232975 56201 49%
c i  0.08 46 66 0  18  231  165 55% 3 232975 55876 49%
c i  0.08 46 57 0  29  271  202 55% 3 232975 55778 49%
c i  0.09 46 43 0  58  378  303 55% 4 232975 55773 49%
c i  0.09 46 40 0  68  420  340 55% 4 232975 55768 49%
c i  0.09 46 40 0  70  428  347 54% 4 232975 55684 49%
c i  0.10 46 24 0 103  789  683 54% 4 232975 55657 49%
c i  0.11 46 24 0 103  798  691 54% 4 232975 55655 49%
c 
c  seconds  reductions  redundant  irredundant
c         MB    restarts       trail       variables
c          level   conflicts       glue         remaining
c 
c i  0.11 46 21 0 103  930  766 54% 4 232975 55573 49%
c }  0.12 46 20 0 103 1002  813 54% 4 232975 55573 49%
c [  0.12 46  0 0 103 1002  813  0% 0 232975 55573 49%
c F  0.12 46 2310 0 103 1003  814 64% 2 232975 55573 49%
c i  0.13 46 383 0 103 1041  832 56% 3 232975 55149 48%
c i  0.13 46 373 0 103 1042  832 56% 2 232975 54772 48%
c i  0.13 46 237 0 103 1064  847 55% 2 232975 53784 47%
c ]  0.13 46 226 0 103 1068  847 55% 2 232975 52999 46%
c 0  0.13 46 226 0 103 1068  847 55% 2 232975 52999 46%
c 
c --- [ result ] -------------------------------------------------------------
c 
s UNSATISFIABLE
c 
c --- [ run-time profiling ] -------------------------------------------------
c 
c process time taken by individual solving procedures
c (percentage relative to process time for solving)
c 
c         0.07   99.82% search
c         0.05   73.77% parse
c         0.05   71.64% unstable
c         0.01   17.67% stable
c         0.01   10.46% lucky
c         0.00    0.00% simplify
c   =================================
c         0.07   57.23% solve
c 
c last line shows process time for solving
c (percentage relative to total process time)
c 
c --- [ statistics ] ---------------------------------------------------------
c 
c chronological:               288        26.97 %  of conflicts
c conflicts:                  1068     14508.70    per second
c decisions:                  6178     83927.67    per second
c fixed:                     61158        53.54 %  of all variables
c learned:                    1001        93.73 %  per conflict
c learned_lits:              14798       100.00 %  learned literals
c minimized:                     0         0.00 %  learned literals
c shrunken:                   4104        27.73 %  learned literals
c minishrunken:               2343        15.83 %  learned literals
c otfs:                         11         1.03 %  of conflict
c propagations:            1021757        13.88 M  per second
c rephased:                      1      1068.00    interval
c restarts:                    103        10.37    interval
c stabilizing:                   1         6.18 %  of conflicts
c subsumed:                    131         0.06 %  of all clauses
c strengthened:                 11         0.00 %  of all clauses
c 
c seconds are measured in process time for solving
c 
c --- [ resources ] ----------------------------------------------------------
c 
c total process time since initialization:         0.13    seconds
c total real time since initialization:            0.13    seconds
c maximum resident set size of process:           43.99    MB
c 
c --- [ shutting down ] ------------------------------------------------------
c 
c exit 20
